weniger-krumme-touren/beispiele/random/30/302.txt.solution
[0, 3, 4, 6, 21, 20, 27, 17, 18, 19, 26, 25, 24, 23, 12, 11, 10, 8, 29, 14, 28, 22, 13, 9, 7, 15, 16, 5, 2, 1]